Solver command line: ['C:\\gurobi1102\\win64\\bin\\gurobi.bat']

Set parameter Username
Academic license - for non-commercial use only - expires 2025-06-25
Read LP format model from file C:\Users\danin\AppData\Local\Temp\tmpu8zxk0hv.pyomo.lp
Reading time = 0.16 seconds
x1: 17001 rows, 16900 columns, 126398 nonzeros
Set parameter Cuts to value 0
Set parameter Presolve to value 0
Set parameter TimeLimit to value 10
Set parameter Threads to value 6
Gurobi Optimizer version 11.0.2 build v11.0.2rc0 (win64 - Windows 11.0 (22631.2))

CPU model: AMD Ryzen 5 4600H with Radeon Graphics, instruction set [SSE2|AVX|AVX2]
Thread count: 6 physical cores, 12 logical processors, using up to 6 threads

Optimize a model with 17001 rows, 16900 columns and 126398 nonzeros
Model fingerprint: 0x4197d89c
Variable types: 625 continuous, 16275 integer (16275 binary)
Coefficient statistics:
  Matrix range     [1e+00, 3e+02]
  Objective range  [7e+00, 7e+01]
  Bounds range     [1e+00, 1e+00]
  RHS range        [1e+00, 2e+02]
Variable types: 625 continuous, 16275 integer (16275 binary)
Found heuristic solution: objective 1246.1601802
Deterministic concurrent LP optimizer: primal and dual simplex
Showing primal log only...

Concurrent spin time: 0.07s

Solved with dual simplex

Root relaxation: objective 3.699098e+02, 2369 iterations, 0.33 seconds (0.29 work units)

    Nodes    |    Current Node    |     Objective Bounds      |     Work
 Expl Unexpl |  Obj  Depth IntInf | Incumbent    BestBd   Gap | It/Node Time

     0     0  369.90978    0   52 1246.16018  369.90978  70.3%     -    0s
     0     0  375.10825    0   44 1246.16018  375.10825  69.9%     -    0s
     0     0  375.33479    0   44 1246.16018  375.33479  69.9%     -    1s
     0     2  381.64708    0   44 1246.16018  381.64708  69.4%     -    1s
H   32    37                     984.5147771  381.64708  61.2%   174    3s
H   67    73                     967.3924945  381.64708  60.5%   156    5s
H   68    73                     951.9534866  381.64708  59.9%   155    5s
H  100   106                     948.5814914  381.64708  59.8%   171    6s
H  106   112                     948.1192574  381.64708  59.7%   172    6s
H  107   112                     905.8472575  381.64708  57.9%   170    6s
H  141   147                     859.0339623  381.64708  55.6%   158    8s
H  142   147                     763.3485556  381.64708  50.0%   156    8s
H  143   147                     650.2478034  381.64708  41.3%   156    8s
H  145   147                     603.5938145  381.64708  36.8%   159    8s
   170   177  399.76002   27  178  603.59381  381.64708  36.8%   152   10s
H  171   177                     598.7187238  381.64708  36.3%   151   10s
H  173   177                     574.4051476  381.64708  33.6%   149   10s

Explored 177 nodes (30449 simplex iterations) in 10.05 seconds (14.20 work units)
Thread count was 6 (of 12 available processors)

Solution count 10: 574.405 598.719 603.594 ... 951.953

Time limit reached
Best objective 5.744051475845e+02, best bound 3.816470817048e+02, gap 33.5579%

